57
21
0 25 26 28 29 30 32 34 37 42 46 47 48 49 50 53
1 21 22 23 24 25 29 32 37 40 43 44 45 47 48 52 53 54 55
2 22 26 28 29 31 32 33 36 37 40 44 45 47 48 50 51 52 54
3 22 23 26 29 32 38 39 43 44 45 48 49 53
4 21 22 24 25 32 37 45 47 49 53 54 55 56
5 22 24 25 26 28 29 32 40 44 46 48 52 53 56
6 29 30 32 33 36 37 43 44 47 48 49 50 52 53 54
7 22 25 26 28 29 31 33 40 41 42 43 45 49 50 53 54 56
8 21 22 24 25 26 28 29 37 38 39 40 43 45 46 47 48 49 50 51 56
9 24 25 28 29 31 38 45 47 48 49 50 52 53 54 56
10 21 24 25 27 28 29 32 36 43 44 45 47 48 49 50 54
11 22 26 31 33 36 37 38 39 42 44 45 46 48 49 53 56
12 22 26 29 32 37 39 46 52 54
13 22 24 27 35 38 43 44 46 48 53 56
14 24 27 32 33 37 45 47 48 50 52 54 55
15 26 30 33 43 50 52 54
16 31 38 43 44 45 46 47 48 52
17 21 24 27 30 31 37 43 47 50 51
18 22 26 32 36 44 49 53
19 30 42 45
20 33 38 51
